[[69, 70, 71, 72, 81, 80, 78, 77, 79, 88, 89, 90, 99, 98], [97, 96, 87, 95, 86, 85, 94, 93, 92, 91, 82, 83, 73, 84, 76], [75, 74, 67, 68, 66, 65, 64, 56, 58, 59, 49, 57, 55], [46, 47, 48, 39, 38, 28, 37, 29, 40, 41, 32, 31, 30, 21, 22], [24, 23, 13, 19, 20, 11, 10, 2, 12, 3, 4, 14, 5], [15, 6, 7, 8, 9, 18, 17, 16, 25, 26, 27], [35, 36, 44, 34, 33, 42, 43, 45, 54, 53, 52, 50, 51, 60, 61, 62, 63]]